# Solution for model Factory Planning
# Objective value = 6.5121333333333328e+04
Make[Jan,P1] 0
Make[Jan,P2] 500
Make[Jan,P3] 1.3020833333333331e+02
Make[Jan,P4] 0
Make[Jan,P5] 375
Make[Jan,P6] 3.6666666666666669e+02
Make[Feb,P1] 300
Make[Feb,P2] 800
Make[Feb,P3] 9.3333333333333144e+01
Make[Feb,P4] 3.3333333333333336e+01
Make[Feb,P5] 325
Make[Feb,P6] 0
Make[Mar,P1] 600
Make[Mar,P2] 100
Make[Mar,P3] 1.0666666666666686e+02
Make[Mar,P4] 0
Make[Mar,P5] 7.1333333333333326e+02
Make[Mar,P6] 0
Make[Apr,P1] 200
Make[Apr,P2] 100
Make[Apr,P3] 200
Make[Apr,P4] 4.6666666666666669e+02
Make[Apr,P5] 3.3333333333333337e+02
Make[Apr,P6] 100
Make[May,P1] 140
Make[May,P2] 140
Make[May,P3] 340
Make[May,P4] 40
Make[May,P5] 2.9333333333333337e+02
Make[May,P6] 340
Store[Jan,P1] 0
Store[Jan,P2] 0
Store[Jan,P3] 0
Store[Jan,P4] 0
Store[Jan,P5] 175
Store[Jan,P6] 0
Store[Feb,P1] 0
Store[Feb,P2] 200
Store[Feb,P3] 9.3333333333333144e+01
Store[Feb,P4] 3.3333333333333336e+01
Store[Feb,P5] 0
Store[Feb,P6] 0
Store[Mar,P1] 0
Store[Mar,P2] 0
Store[Mar,P3] 0
Store[Mar,P4] 3.3333333333333336e+01
Store[Mar,P5] 1.3333333333333258e+01
Store[Mar,P6] 0
Store[Apr,P1] 0
Store[Apr,P2] 0
Store[Apr,P3] 0
Store[Apr,P4] 0
Store[Apr,P5] 1.4666666666666663e+02
Store[Apr,P6] 0
Store[May,P1] 40
Store[May,P2] 40
Store[May,P3] 40
Store[May,P4] 40
Store[May,P5] 40
Store[May,P6] 40
Sell[Jan,P1] 0
Sell[Jan,P2] 500
Sell[Jan,P3] 1.3020833333333331e+02
Sell[Jan,P4] 0
Sell[Jan,P5] 200
Sell[Jan,P6] 3.6666666666666669e+02
Sell[Feb,P1] 300
Sell[Feb,P2] 600
Sell[Feb,P3] 0
Sell[Feb,P4] 0
Sell[Feb,P5] 500
Sell[Feb,P6] 0
Sell[Mar,P1] 600
Sell[Mar,P2] 300
Sell[Mar,P3] 200
Sell[Mar,P4] 0
Sell[Mar,P5] 700
Sell[Mar,P6] 0
Sell[Apr,P1] 200
Sell[Apr,P2] 100
Sell[Apr,P3] 200
Sell[Apr,P4] 500
Sell[Apr,P5] 200
Sell[Apr,P6] 100
Sell[May,P1] 100
Sell[May,P2] 100
Sell[May,P3] 300
Sell[May,P4] 0
Sell[May,P5] 400
Sell[May,P6] 300
